c Result of efficient AIG-to-CNF conversion using package CNF
p cnf 609 2210
2 577 578 -3 0
-2 3 0
-2 -578 0
-2 -577 0
3 579 580 -327 0
3 579 580 -4 0
-3 -579 0
-3 -580 0
-3 4 327 0
4 5 -311 0
4 5 -15 0
4 5 -276 0
-4 -5 0
-4 15 276 311 0
-5 6 7 9 13 0
5 -13 0
5 -6 0
5 -9 0
5 -7 0
-6 589 590 0
6 -589 0
6 -590 0
-7 593 594 8 0
7 -8 0
7 -594 0
7 -593 0
-8 595 596 597 598 0
8 -598 0
8 -597 0
8 -595 0
8 -596 0
-9 591 592 10 11 0
9 -591 0
9 -11 0
9 -10 0
9 -592 0
-10 583 584 585 0
10 -583 0
10 -585 0
10 -584 0
-11 581 582 587 12 0
11 -12 0
11 -587 0
11 -581 0
11 -582 0
-12 586 588 0
12 -586 0
12 -588 0
-13 599 600 604 14 0
13 -14 0
13 -604 0
13 -599 0
13 -600 0
-14 601 602 603 0
14 -601 0
14 -603 0
14 -602 0
-15 16 239 -270 0
-15 16 239 261 0
15 -16 0
15 -239 0
15 -261 270 0
16 -17 226 0
-16 17 0
-16 -226 0
17 605 -18 0
17 -605 -210 0
-17 -605 210 0
-17 605 18 0
18 606 -19 0
18 -606 -192 0
-18 -606 192 0
-18 606 19 0
19 607 -20 0
19 -607 -181 0
-19 -607 181 0
-19 607 20 0
20 608 -21 0
20 -608 -173 0
-20 -608 173 0
-20 608 21 0
21 22 -61 135 0
21 -22 135 -168 0
-21 -135 0
-21 -22 168 0
-21 22 61 0
22 572 23 -46 0
22 -572 23 -34 0
-22 -23 0
-22 572 46 0
-22 -572 34 0
-23 24 30 32 33 0
23 -33 0
23 -24 0
23 -32 0
23 -30 0
-24 569 570 25 27 0
24 -569 0
24 -27 0
24 -25 0
24 -570 0
-25 561 567 568 26 0
25 -26 0
25 -568 0
25 -561 0
25 -567 0
-26 565 566 571 0
26 -565 0
26 -571 0
26 -566 0
-27 562 563 564 28 0
27 -28 0
27 -564 0
27 -562 0
27 -563 0
-28 557 558 29 0
28 -29 0
28 -558 0
28 -557 0
-29 553 554 559 560 0
29 -560 0
29 -559 0
29 -553 0
29 -554 0
-30 551 555 556 31 0
30 -31 0
30 -556 0
30 -551 0
30 -555 0
-31 549 550 0
31 -549 0
31 -550 0
-32 545 552 0
32 -545 0
32 -552 0
-33 546 547 548 0
33 -546 0
33 -548 0
33 -547 0
-34 573 39 0
-34 -573 35 0
34 -573 -35 0
34 573 -39 0
35 574 -36 0
-35 -574 0
-35 36 0
36 575 -37 0
36 -575 -38 0
-36 -575 38 0
-36 575 37 0
37 -576 -579 0
37 576 -580 0
-37 576 580 0
-37 -576 579 0
38 -576 -577 0
38 576 -578 0
-38 576 578 0
-38 -576 577 0
39 574 -40 0
39 -574 -43 0
-39 -574 43 0
-39 574 40 0
40 575 -41 0
40 -575 -42 0
-40 -575 42 0
-40 575 41 0
41 -576 -587 0
41 576 -588 0
-41 576 588 0
-41 -576 587 0
42 -576 -585 0
42 576 -586 0
-42 576 586 0
-42 -576 585 0
43 575 -44 0
43 -575 -45 0
-43 -575 45 0
-43 575 44 0
44 -576 -583 0
44 576 -584 0
-44 576 584 0
-44 -576 583 0
45 -576 -581 0
45 576 -582 0
-45 576 582 0
-45 -576 581 0
-46 573 47 0
-46 -573 54 0
46 -573 -54 0
46 573 -47 0
-47 574 51 0
-47 -574 48 0
47 -574 -48 0
47 574 -51 0
48 575 -49 0
48 -575 -50 0
-48 -575 50 0
-48 575 49 0
49 -576 -599 0
49 576 -600 0
-49 576 600 0
-49 -576 599 0
50 -576 -597 0
50 576 -598 0
-50 576 598 0
-50 -576 597 0
51 575 -52 0
51 -575 -53 0
-51 -575 53 0
-51 575 52 0
52 -576 -603 0
52 576 -604 0
-52 576 604 0
-52 -576 603 0
53 -576 -601 0
53 576 -602 0
-53 576 602 0
-53 -576 601 0
54 574 -55 0
54 -574 -58 0
-54 -574 58 0
-54 574 55 0
55 575 -56 0
55 -575 -57 0
-55 -575 57 0
-55 575 56 0
56 -576 -595 0
56 576 -596 0
-56 576 596 0
-56 -576 595 0
57 -576 -593 0
57 576 -594 0
-57 576 594 0
-57 -576 593 0
58 575 -59 0
58 -575 -60 0
-58 -575 60 0
-58 575 59 0
59 -576 -591 0
59 576 -592 0
-59 576 592 0
-59 -576 591 0
60 -576 -589 0
60 576 -590 0
-60 576 590 0
-60 -576 589 0
61 -62 -91 0
61 -557 62 0
-61 -62 91 0
-61 557 62 0
62 -572 23 -78 0
62 572 23 -63 0
-62 -23 0
-62 -572 78 0
-62 572 63 0
-63 573 64 0
-63 -573 71 0
63 -573 -71 0
63 573 -64 0
-64 574 65 0
-64 -574 68 0
64 -574 -68 0
64 574 -65 0
-65 575 67 0
-65 -575 66 0
65 -575 -66 0
65 575 -67 0
66 -576 -602 0
66 576 -603 0
-66 576 603 0
-66 -576 602 0
67 -576 -604 0
67 576 -605 0
-67 576 605 0
-67 -576 604 0
68 575 -69 0
68 -575 -70 0
-68 -575 70 0
-68 575 69 0
69 -576 -600 0
69 576 -601 0
-69 576 601 0
-69 -576 600 0
70 -576 -598 0
70 576 -599 0
-70 576 599 0
-70 -576 598 0
71 574 -72 0
71 -574 -75 0
-71 -574 75 0
-71 574 72 0
72 575 -73 0
72 -575 -74 0
-72 -575 74 0
-72 575 73 0
73 -576 -596 0
73 576 -597 0
-73 576 597 0
-73 -576 596 0
74 -576 -594 0
74 576 -595 0
-74 576 595 0
-74 -576 594 0
75 575 -76 0
75 -575 -77 0
-75 -575 77 0
-75 575 76 0
76 -576 -592 0
76 576 -593 0
-76 576 593 0
-76 -576 592 0
77 -576 -590 0
77 576 -591 0
-77 576 591 0
-77 -576 590 0
78 573 -79 0
78 -573 -86 0
-78 -573 86 0
-78 573 79 0
79 574 -80 0
79 -574 -83 0
-79 -574 83 0
-79 574 80 0
80 575 -81 0
80 -575 -82 0
-80 -575 82 0
-80 575 81 0
81 -576 -588 0
81 576 -589 0
-81 576 589 0
-81 -576 588 0
82 -576 -586 0
82 576 -587 0
-82 576 587 0
-82 -576 586 0
83 575 -84 0
83 -575 -85 0
-83 -575 85 0
-83 575 84 0
84 -576 -584 0
84 576 -585 0
-84 576 585 0
-84 -576 584 0
85 -576 -582 0
85 576 -583 0
-85 576 583 0
-85 -576 582 0
86 574 -87 0
86 -574 -90 0
-86 -574 90 0
-86 574 87 0
87 575 -88 0
87 -575 -89 0
-87 -575 89 0
-87 575 88 0
88 -576 -580 0
88 576 -581 0
-88 576 581 0
-88 -576 580 0
89 -576 -578 0
89 576 -579 0
-89 576 579 0
-89 -576 578 0
90 575 576 -577 0
-90 577 0
-90 -576 0
-90 -575 0
91 -92 -108 0
91 -565 92 0
-91 -92 108 0
-91 565 92 0
92 -572 23 -101 0
92 572 23 -93 0
-92 -23 0
-92 -572 101 0
-92 572 93 0
-93 573 94 0
-93 -573 98 0
93 -573 -98 0
93 573 -94 0
-94 574 95 0
-94 -574 97 0
94 -574 -97 0
94 574 -95 0
-95 575 96 0
-95 -575 52 0
95 -575 -52 0
95 575 -96 0
96 -576 -605 0
96 576 -606 0
-96 576 606 0
-96 -576 605 0
97 -575 -49 0
97 575 -53 0
-97 575 53 0
-97 -575 49 0
98 574 -99 0
98 -574 -100 0
-98 -574 100 0
-98 574 99 0
99 575 -50 0
99 -575 -56 0
-99 -575 56 0
-99 575 50 0
100 575 -57 0
100 -575 -59 0
-100 -575 59 0
-100 575 57 0
101 573 -102 0
101 -573 -105 0
-101 -573 105 0
-101 573 102 0
102 574 -103 0
102 -574 -104 0
-102 -574 104 0
-102 574 103 0
103 -575 -41 0
103 575 -60 0
-103 575 60 0
-103 -575 41 0
104 575 -42 0
104 -575 -44 0
-104 -575 44 0
-104 575 42 0
105 574 -106 0
105 -574 -107 0
-105 -574 107 0
-105 574 106 0
106 -575 -37 0
106 575 -45 0
-106 575 45 0
-106 -575 37 0
107 575 576 -578 0
107 575 -576 -577 0
-107 -575 0
-107 -576 577 0
-107 576 578 0
108 -109 -125 0
108 -569 109 0
-108 -109 125 0
-108 569 109 0
109 -572 23 -118 0
109 572 23 -110 0
-109 -23 0
-109 -572 118 0
-109 572 110 0
-110 573 111 0
-110 -573 115 0
110 -573 -115 0
110 573 -111 0
-111 574 112 0
-111 -574 114 0
111 -574 -114 0
111 574 -112 0
-112 575 113 0
-112 -575 67 0
112 -575 -67 0
112 575 -113 0
113 -576 -606 0
113 576 -607 0
-113 576 607 0
-113 -576 606 0
114 575 -66 0
114 -575 -69 0
-114 -575 69 0
-114 575 66 0
115 574 -116 0
115 -574 -117 0
-115 -574 117 0
-115 574 116 0
116 575 -70 0
116 -575 -73 0
-116 -575 73 0
-116 575 70 0
117 575 -74 0
117 -575 -76 0
-117 -575 76 0
-117 575 74 0
118 573 -119 0
118 -573 -122 0
-118 -573 122 0
-118 573 119 0
119 574 -120 0
119 -574 -121 0
-119 -574 121 0
-119 574 120 0
120 575 -77 0
120 -575 -81 0
-120 -575 81 0
-120 575 77 0
121 575 -82 0
121 -575 -84 0
-121 -575 84 0
-121 575 82 0
122 574 -123 0
122 -574 -124 0
-122 -574 124 0
-122 574 123 0
123 575 -85 0
123 -575 -88 0
-123 -575 88 0
-123 575 85 0
124 575 -89 0
124 -575 576 -577 0
-124 -575 -576 0
-124 575 89 0
-124 -575 577 0
125 -572 -126 0
125 -571 126 0
-125 571 126 0
-125 572 -126 0
126 -572 23 -132 0
126 572 23 -127 0
-126 -23 0
-126 -572 132 0
-126 572 127 0
-127 573 128 0
-127 -573 131 0
127 -573 -131 0
127 573 -128 0
-128 -574 51 0
-128 574 129 0
128 -574 -51 0
128 574 -129 0
-129 575 130 0
-129 -575 96 0
129 -575 -96 0
129 575 -130 0
130 -576 -607 0
130 576 -608 0
-130 576 608 0
-130 -576 607 0
131 574 -48 0
131 -574 -55 0
-131 -574 55 0
-131 574 48 0
132 573 -133 0
132 -573 -134 0
-132 -573 134 0
-132 573 133 0
133 -574 -40 0
133 574 -58 0
-133 574 58 0
-133 -574 40 0
134 -574 -36 0
134 574 -43 0
-134 574 43 0
-134 -574 36 0
135 23 -155 0
135 23 -136 146 0
-135 -23 0
-135 136 155 0
-135 -146 155 0
-136 572 573 142 0
-136 572 -573 137 0
136 -572 0
136 -573 -137 0
136 573 -142 0
-137 102 119 138 141 0
137 -102 0
137 -141 0
137 -138 0
137 -119 0
-138 133 139 0
138 -133 0
138 -139 0
139 -574 -103 0
139 574 -140 0
139 -574 -120 0
-139 574 140 0
-139 -574 103 120 0
-140 100 117 0
140 -100 0
140 -117 0
141 574 -75 0
141 -574 -80 0
-141 -574 80 0
-141 574 75 0
-142 574 143 145 0
-142 -574 144 145 0
142 -145 0
142 -574 -144 0
142 574 -143 0
-143 68 97 114 0
143 -68 0
143 -114 0
143 -97 0
-144 72 99 116 0
144 -72 0
144 -116 0
144 -99 0
-145 98 115 131 0
145 -98 0
145 -131 0
145 -115 0
146 -572 573 150 0
146 -572 -573 147 0
-146 572 0
-146 -573 -147 0
-146 573 -150 0
-147 -574 148 149 0
-147 90 148 149 0
147 -149 0
147 -148 0
147 574 -90 0
148 574 -124 0
-148 -574 0
-148 124 0
149 574 -107 0
-149 -574 0
-149 107 0
-150 134 151 152 153 0
150 -134 0
150 -153 0
150 -152 0
150 -151 0
151 574 -83 0
151 -574 -87 0
-151 -574 87 0
-151 574 83 0
-152 105 122 0
152 -105 0
152 -122 0
-153 -574 154 0
-153 574 104 121 0
153 574 -104 0
153 -574 -154 0
153 574 -121 0
-154 106 123 0
154 -106 0
154 -123 0
155 572 -159 0
155 573 -156 -159 0
-155 159 0
-155 -572 156 0
-155 -572 -573 0
-156 86 148 149 157 0
156 -157 0
156 -149 0
156 -86 0
156 -148 0
-157 35 158 0
157 -35 0
157 -158 0
158 574 575 576 -577 0
-158 577 0
-158 -576 0
-158 -574 0
-158 -575 0
-159 -573 160 166 0
-159 160 164 166 0
159 -166 0
159 -160 0
159 573 -164 0
-160 78 118 132 161 0
160 -161 0
160 -132 0
160 -78 0
160 -118 0
-161 39 162 0
161 -39 0
161 -162 0
162 -573 -79 0
162 573 -163 0
162 -573 -157 0
-162 573 163 0
-162 -573 79 157 0
-163 86 134 0
163 -86 0
163 -134 0
-164 54 141 157 165 0
164 -54 0
164 -165 0
164 -157 0
164 -141 0
-165 71 139 152 0
165 -152 0
165 -139 0
165 -71 0
-166 149 151 153 167 0
166 -149 0
166 -167 0
166 -153 0
166 -151 0
-167 572 101 148 0
167 -572 0
167 -148 0
167 -101 0
168 62 -169 0
-168 -62 0
-168 169 0
169 92 -170 0
-169 -92 0
-169 170 0
170 109 -171 0
170 -109 -172 0
-170 -109 172 0
-170 109 171 0
171 -574 -126 0
171 -573 126 0
-171 573 126 0
-171 574 -126 0
172 -576 -126 0
172 -575 126 0
-172 575 126 0
-172 576 -126 0
173 -556 22 135 0
173 -22 135 -174 0
-173 -135 0
-173 -22 174 0
-173 556 22 0
174 62 -175 0
-174 -62 0
-174 175 0
175 92 -176 0
175 -92 -179 0
-175 -92 179 0
-175 92 176 0
176 109 -177 0
176 -109 -178 0
-176 -109 178 0
-176 109 177 0
177 -573 -126 0
177 -572 126 0
-177 572 126 0
-177 573 -126 0
178 -575 -126 0
178 -574 126 0
-178 574 126 0
-178 575 -126 0
179 109 -180 0
-179 -109 0
-179 180 0
180 -576 126 0
-180 576 0
-180 -126 0
181 608 -182 0
181 -608 -187 0
-181 -608 187 0
-181 608 182 0
182 -555 22 135 0
182 -22 135 -183 0
-182 -135 0
-182 -22 183 0
-182 555 22 0
183 62 -184 0
-183 -62 0
-183 184 0
184 92 -185 0
184 -92 -186 0
-184 -92 186 0
-184 92 185 0
185 109 -125 0
185 -109 -171 0
-185 -109 171 0
-185 109 125 0
186 109 -172 0
-186 -109 0
-186 172 0
187 -554 22 135 0
187 -22 135 -188 0
-187 -135 0
-187 -22 188 0
-187 554 22 0
188 62 -189 0
-188 -62 0
-188 189 0
189 92 -190 0
189 -92 -191 0
-189 -92 191 0
-189 92 190 0
190 -109 -177 0
190 -570 109 0
-190 -109 177 0
-190 570 109 0
191 109 -178 0
191 -109 -180 0
-191 -109 180 0
-191 109 178 0
192 607 -193 0
192 -607 -201 0
-192 -607 201 0
-192 607 193 0
193 608 -194 0
193 -608 -197 0
-193 -608 197 0
-193 608 194 0
194 -553 22 135 0
194 -22 135 -195 0
-194 -135 0
-194 -22 195 0
-194 553 22 0
195 62 -196 0
-195 -62 0
-195 196 0
196 92 -108 0
196 -92 -170 0
-196 -92 170 0
-196 92 108 0
197 -552 135 0
197 -22 135 -198 0
-197 -135 0
-197 552 22 0
-197 552 198 0
198 62 -199 0
198 -62 -200 0
-198 -62 200 0
-198 62 199 0
199 -92 -176 0
199 -568 92 0
-199 -92 176 0
-199 568 92 0
200 92 -179 0
-200 -92 0
-200 179 0
201 608 -202 0
201 -608 -206 0
-201 -608 206 0
-201 608 202 0
202 -551 135 0
202 -22 135 -203 0
-202 -135 0
-202 551 22 0
-202 551 203 0
203 62 -204 0
203 -62 -205 0
-203 -62 205 0
-203 62 204 0
204 -92 -185 0
204 -567 92 0
-204 -92 185 0
-204 567 92 0
205 92 -186 0
-205 -92 0
-205 186 0
206 -550 135 0
206 -22 135 -207 0
-206 -135 0
-206 550 22 0
-206 550 207 0
207 62 -208 0
207 -62 -209 0
-207 -62 209 0
-207 62 208 0
208 -92 -190 0
208 -566 92 0
-208 -92 190 0
-208 566 92 0
209 92 -191 0
-209 -92 0
-209 191 0
210 606 -211 0
210 -606 -222 0
-210 -606 222 0
-210 606 211 0
211 607 -212 0
211 -607 -217 0
-211 -607 217 0
-211 607 212 0
212 608 -213 0
212 -608 -215 0
-212 -608 215 0
-212 608 213 0
213 -549 135 0
213 -22 135 -214 0
-213 -135 0
-213 549 22 0
-213 549 214 0
214 62 -91 0
214 -62 -169 0
-214 -62 169 0
-214 62 91 0
215 -548 135 0
215 -22 135 -216 0
-215 -135 0
-215 548 22 0
-215 548 216 0
216 -62 -175 0
216 -564 62 0
-216 -62 175 0
-216 564 62 0
217 608 -218 0
217 -608 -220 0
-217 -608 220 0
-217 608 218 0
218 -547 135 0
218 -22 135 -219 0
-218 -135 0
-218 547 22 0
-218 547 219 0
219 -62 -184 0
219 -563 62 0
-219 -62 184 0
-219 563 62 0
220 -546 135 0
220 -22 135 -221 0
-220 -135 0
-220 546 22 0
-220 546 221 0
221 -62 -189 0
221 -562 62 0
-221 -62 189 0
-221 562 62 0
222 607 -223 0
-222 -607 0
-222 223 0
223 608 -224 0
-223 -608 0
-223 224 0
224 -545 135 0
224 -22 135 -225 0
-224 -135 0
-224 545 22 0
-224 545 225 0
225 -62 -196 0
225 -561 62 0
-225 -62 196 0
-225 561 62 0
226 605 -227 0
226 -605 -234 0
-226 -605 234 0
-226 605 227 0
227 606 -228 0
227 -606 -231 0
-227 -606 231 0
-227 606 228 0
228 607 -229 0
228 -607 -230 0
-228 -607 230 0
-228 607 229 0
229 -557 608 0
229 -556 -608 0
-229 557 608 0
-229 556 -608 0
230 -555 608 0
230 -554 -608 0
-230 555 608 0
-230 554 -608 0
231 607 -232 0
231 -607 -233 0
-231 -607 233 0
-231 607 232 0
232 -553 608 0
232 -552 -608 0
-232 553 608 0
-232 552 -608 0
233 -551 608 0
233 -550 -608 0
-233 551 608 0
-233 550 -608 0
234 606 -235 0
234 -606 -238 0
-234 -606 238 0
-234 606 235 0
235 607 -236 0
235 -607 -237 0
-235 -607 237 0
-235 607 236 0
236 -549 608 0
236 -548 -608 0
-236 549 608 0
-236 548 -608 0
237 -547 608 0
237 -546 -608 0
-237 547 608 0
-237 546 -608 0
238 -545 607 608 0
-238 545 0
-238 -608 0
-238 -607 0
239 240 -250 0
239 -5 -250 0
-239 250 0
-239 5 -240 0
240 605 -241 0
240 -605 -248 0
-240 -605 248 0
-240 605 241 0
241 606 -242 0
241 -606 -245 0
-241 -606 245 0
-241 606 242 0
242 607 -243 0
242 -607 -244 0
-242 -607 244 0
-242 607 243 0
243 -554 608 0
243 -553 -608 0
-243 554 608 0
-243 553 -608 0
244 -552 608 0
244 -551 -608 0
-244 552 608 0
-244 551 -608 0
245 607 -246 0
245 -607 -247 0
-245 -607 247 0
-245 607 246 0
246 -550 608 0
246 -549 -608 0
-246 550 608 0
-246 549 -608 0
247 -548 608 0
247 -547 -608 0
-247 548 608 0
-247 547 -608 0
248 606 -249 0
-248 -606 0
-248 249 0
249 -545 607 -608 0
249 -546 607 608 0
-249 -607 0
-249 545 -608 0
-249 546 608 0
250 605 -251 0
250 -605 -258 0
-250 -605 258 0
-250 605 251 0
251 606 -252 0
251 -606 -255 0
-251 -606 255 0
-251 606 252 0
252 607 -253 0
252 -607 -254 0
-252 -607 254 0
-252 607 253 0
253 608 -187 0
253 -608 -194 0
-253 -608 194 0
-253 608 187 0
254 608 -197 0
254 -608 -202 0
-254 -608 202 0
-254 608 197 0
255 607 -256 0
255 -607 -257 0
-255 -607 257 0
-255 607 256 0
256 608 -206 0
256 -608 -213 0
-256 -608 213 0
-256 608 206 0
257 608 -215 0
257 -608 -218 0
-257 -608 218 0
-257 608 215 0
258 606 -259 0
-258 -606 0
-258 259 0
259 607 -260 0
-259 -607 0
-259 260 0
260 608 -220 0
260 -608 -224 0
-260 -608 224 0
-260 608 220 0
261 605 -262 0
261 -605 -269 0
-261 -605 269 0
-261 605 262 0
262 -606 -252 0
262 606 -263 0
-262 606 263 0
-262 -606 252 0
263 607 -264 0
263 -607 -268 0
-263 -607 268 0
-263 607 264 0
264 -608 -21 0
264 608 -265 0
-264 608 265 0
-264 -608 21 0
265 -22 135 -267 0
265 22 135 -266 0
-265 -135 0
-265 -22 267 0
-265 22 266 0
266 -62 -208 0
266 -558 62 0
-266 -62 208 0
-266 558 62 0
267 62 -209 0
-267 -62 0
-267 209 0
268 608 -173 0
268 -608 -182 0
-268 -608 182 0
-268 608 173 0
269 606 -255 0
269 -606 -259 0
-269 -606 259 0
-269 606 255 0
270 605 -271 0
270 -605 -275 0
-270 -605 275 0
-270 605 271 0
271 -606 -242 0
271 606 -272 0
-271 606 272 0
-271 -606 242 0
272 607 -273 0
272 -607 -274 0
-272 -607 274 0
-272 607 273 0
273 -558 608 0
273 -557 -608 0
-273 558 608 0
-273 557 -608 0
274 -556 608 0
274 -555 -608 0
-274 556 608 0
-274 555 -608 0
275 606 -245 0
275 -606 -249 0
-275 -606 249 0
-275 606 245 0
-276 277 289 -292 0
-276 277 289 300 0
276 -277 0
276 -289 0
276 292 -300 0
-277 -282 288 0
-277 278 -287 0
-277 -282 -287 0
-277 278 288 0
277 287 -288 0
277 -278 282 0
278 605 -279 0
-278 -605 0
-278 279 0
279 606 -280 0
279 -606 -281 0
-279 -606 281 0
-279 606 280 0
280 607 -254 0
280 -607 -256 0
-280 -607 256 0
-280 607 254 0
281 607 -257 0
281 -607 -260 0
-281 -607 260 0
-281 607 257 0
282 605 -283 0
-282 -605 0
-282 283 0
283 606 -284 0
283 -606 -285 0
-283 -606 285 0
-283 606 284 0
284 607 -244 0
284 -607 -246 0
-284 -607 246 0
-284 607 244 0
285 607 -247 0
285 -607 -286 0
-285 -607 286 0
-285 607 247 0
286 -546 608 0
286 -545 -608 0
-286 546 608 0
-286 545 -608 0
287 605 -275 0
-287 -605 0
-287 275 0
288 605 -269 0
-288 -605 0
-288 269 0
289 290 -291 0
-289 -290 0
-289 291 0
290 605 -234 0
-290 -605 0
-290 234 0
291 605 -210 0
-291 -605 0
-291 210 0
292 605 -293 0
292 -605 -297 0
-292 -605 297 0
-292 605 293 0
293 606 -294 0
293 -606 -296 0
-293 -606 296 0
-293 606 294 0
294 -607 -229 0
294 607 -295 0
-294 607 295 0
-294 -607 229 0
295 -559 608 0
295 -558 -608 0
-295 559 608 0
-295 558 -608 0
296 607 -230 0
296 -607 -232 0
-296 -607 232 0
-296 607 230 0
297 606 -298 0
297 -606 -299 0
-297 -606 299 0
-297 606 298 0
298 607 -233 0
298 -607 -236 0
-298 -607 236 0
-298 607 233 0
299 607 -237 0
299 -545 -607 608 0
-299 607 237 0
-299 -607 -608 0
-299 545 -607 0
300 605 -301 0
300 -605 -308 0
-300 -605 308 0
-300 605 301 0
301 606 -302 0
301 -606 -307 0
-301 -606 307 0
-301 606 302 0
302 -607 -20 0
302 607 -303 0
-302 607 303 0
-302 -607 20 0
303 -608 -265 0
303 608 -304 0
-303 608 304 0
-303 -608 265 0
304 -22 135 -306 0
304 22 135 -305 0
-304 -135 0
-304 -22 306 0
-304 22 305 0
305 -62 -204 0
305 -559 62 0
-305 -62 204 0
-305 559 62 0
306 62 -205 0
-306 -62 0
-306 205 0
307 607 -181 0
307 -607 -193 0
-307 -607 193 0
-307 607 181 0
308 606 -309 0
308 -606 -310 0
-308 -606 310 0
-308 606 309 0
309 607 -201 0
309 -607 -212 0
-309 -607 212 0
-309 607 201 0
310 607 -217 0
310 -607 -223 0
-310 -607 223 0
-310 607 217 0
-311 -320 325 0
-311 312 -326 0
-311 312 325 0
-311 -320 -326 0
311 -312 320 0
311 -325 326 0
312 -605 -279 0
312 605 -313 0
-312 605 313 0
-312 -605 279 0
313 606 -314 0
313 -606 -319 0
-313 -606 319 0
-313 606 314 0
314 -607 -264 0
314 607 -315 0
-314 607 315 0
-314 -607 264 0
315 -608 -304 0
315 608 -316 0
-315 608 316 0
-315 -608 304 0
316 -22 135 -318 0
316 22 135 -317 0
-316 -135 0
-316 -22 318 0
-316 22 317 0
317 -62 -199 0
317 -560 62 0
-317 -62 199 0
-317 560 62 0
318 62 -200 0
-318 -62 0
-318 200 0
319 -607 -253 0
319 607 -268 0
-319 607 268 0
-319 -607 253 0
320 -605 -283 0
320 605 -321 0
-320 605 321 0
-320 -605 283 0
321 606 -322 0
321 -606 -324 0
-321 -606 324 0
-321 606 322 0
322 -607 -273 0
322 607 -323 0
-322 607 323 0
-322 -607 273 0
323 -560 608 0
323 -559 -608 0
-323 560 608 0
-323 559 -608 0
324 -607 -243 0
324 607 -274 0
-324 607 274 0
-324 -607 243 0
325 605 -308 0
-325 -605 0
-325 308 0
326 605 -297 0
-326 -605 0
-326 297 0
-327 328 339 0
-327 -5 339 0
-327 -331 339 0
327 -339 0
327 5 -328 331 0
328 605 -329 0
328 -605 -330 0
-328 -605 330 0
-328 605 329 0
329 -606 -280 0
329 606 -319 0
-329 606 319 0
-329 -606 280 0
330 606 -281 0
-330 -606 0
-330 281 0
331 332 -333 336 338 0
-331 -338 0
-331 -332 0
-331 -336 0
-331 333 0
-332 589 590 11 0
332 -11 0
332 -590 0
332 -589 0
333 605 -334 0
333 -605 -335 0
-333 -605 335 0
-333 605 334 0
334 -606 -284 0
334 606 -324 0
-334 606 324 0
-334 -606 284 0
335 606 -285 0
-335 -606 0
-335 285 0
-336 7 14 337 0
336 -7 0
336 -14 0
336 -337 0
-337 599 600 604 0
337 -599 0
337 -604 0
337 -600 0
-338 591 592 10 0
338 -10 0
338 -592 0
338 -591 0
-339 -340 344 0
-339 344 408 500 0
339 -344 0
339 340 -500 0
339 340 -408 0
-340 14 341 342 343 0
340 -343 0
340 -14 0
340 -342 0
340 -341 0
-341 599 600 0
341 -599 0
341 -600 0
-342 593 594 332 0
342 -332 0
342 -594 0
342 -593 0
-343 8 338 0
343 -8 0
343 -338 0
-344 345 382 390 397 0
344 -397 0
344 -390 0
344 -345 0
344 -382 0
-345 346 -378 0
-345 346 374 0
-345 -340 346 0
345 -346 0
345 340 -374 378 0
346 340 -347 365 0
346 340 -347 -373 0
-346 -340 0
-346 347 0
-346 -365 373 0
-347 -604 278 0
-347 604 348 0
347 -604 -278 0
347 604 -348 0
-348 605 349 0
-348 -605 313 0
348 -605 -313 0
348 605 -349 0
349 606 -350 0
349 -606 -358 0
-349 -606 358 0
-349 606 350 0
350 607 -351 0
350 -607 -355 0
-350 -607 355 0
-350 607 351 0
351 608 -352 0
351 -608 -354 0
-351 -608 354 0
-351 608 352 0
352 -198 353 0
-352 198 0
-352 -353 0
-353 22 135 0
353 -22 0
353 -135 0
354 -203 353 0
-354 203 0
-354 -353 0
355 608 -356 0
355 -608 -357 0
-355 -608 357 0
-355 608 356 0
356 -207 353 0
-356 207 0
-356 -353 0
357 -214 353 0
-357 214 0
-357 -353 0
358 607 -359 0
358 -607 -362 0
-358 -607 362 0
-358 607 359 0
359 608 -360 0
359 -608 -361 0
-359 -608 361 0
-359 608 360 0
360 -216 353 0
-360 216 0
-360 -353 0
361 -219 353 0
-361 219 0
-361 -353 0
362 608 -363 0
362 -608 -364 0
-362 -608 364 0
-362 608 363 0
363 -221 353 0
-363 221 0
-363 -353 0
364 -225 353 0
-364 225 0
-364 -353 0
-365 604 -605 321 0
-365 604 605 366 0
365 -604 0
365 -605 -321 0
365 605 -366 0
366 606 -367 0
366 -606 -370 0
-366 -606 370 0
-366 606 367 0
367 607 -368 0
367 -607 -369 0
-367 -607 369 0
-367 607 368 0
368 -568 608 0
368 -567 -608 0
-368 568 608 0
-368 567 -608 0
369 -566 608 0
369 -565 -608 0
-369 566 608 0
-369 565 -608 0
370 607 -371 0
370 -607 -372 0
-370 -607 372 0
-370 607 371 0
371 -564 608 0
371 -563 -608 0
-371 564 608 0
-371 563 -608 0
372 -562 608 0
372 -561 -608 0
-372 562 608 0
-372 561 -608 0
373 -604 282 0
-373 604 0
-373 -282 0
-374 -604 -605 0
-374 604 375 0
-374 -604 258 0
374 604 -375 0
374 -604 605 -258 0
-375 605 376 0
-375 -605 251 0
375 -605 -251 0
375 605 -376 0
376 -606 -263 0
376 606 -377 0
-376 606 377 0
-376 -606 263 0
377 -607 -315 0
377 607 -362 0
-377 607 362 0
-377 -607 315 0
378 -604 381 0
378 -605 381 0
378 -379 381 0
-378 -381 0
-378 604 605 379 0
379 -606 -272 0
379 606 -380 0
-379 606 380 0
-379 -606 272 0
380 -607 -323 0
380 607 -372 0
-380 607 372 0
-380 -607 323 0
-381 605 -248 0
-381 604 -241 0
-381 604 605 0
381 -605 241 0
381 -604 248 0
381 -604 -605 0
382 5 -383 386 0
-382 -5 0
-382 383 0
-382 -386 0
383 605 -384 0
383 -605 -385 0
-383 -605 385 0
-383 605 384 0
384 606 -307 0
384 -606 -309 0
-384 -606 309 0
-384 606 307 0
385 606 -310 0
-385 -606 0
-385 310 0
386 13 342 343 -387 0
-386 387 0
-386 -13 0
-386 -343 0
-386 -342 0
387 605 -388 0
387 -605 -389 0
-387 -605 389 0
-387 605 388 0
388 606 -296 0
388 -606 -298 0
-388 -606 298 0
-388 606 296 0
389 606 -299 0
-389 -606 0
-389 299 0
390 5 -391 394 0
-390 -5 0
-390 391 0
-390 -394 0
391 605 -392 0
391 -605 -393 0
-391 -605 393 0
-391 605 392 0
392 606 -192 0
392 -606 -211 0
-392 -606 211 0
-392 606 192 0
393 606 -222 0
-393 -606 0
-393 222 0
394 605 -395 0
394 -605 -396 0
-394 -605 396 0
-394 605 395 0
395 606 -231 0
395 -606 -235 0
-395 -606 235 0
-395 606 231 0
396 -545 606 607 608 0
-396 -608 0
-396 -607 0
-396 545 0
-396 -606 0
397 340 -398 403 0
397 340 -398 -407 0
-397 -340 0
-397 398 0
-397 -403 407 0
-398 -604 -605 0
-398 604 399 0
-398 -604 393 0
398 604 -399 0
398 -604 605 -393 0
-399 605 400 0
-399 -605 392 0
399 -605 -392 0
399 605 -400 0
400 -606 -19 0
400 606 -401 0
-400 606 401 0
-400 -606 19 0
401 -607 -303 0
401 607 -402 0
-401 607 402 0
-401 -607 303 0
402 -608 -316 0
402 608 -364 0
-402 608 364 0
-402 -608 316 0
403 604 -404 0
403 -604 605 -396 0
403 604 -605 0
-403 -604 -605 0
-403 -604 396 0
-403 604 605 404 0
404 -606 -228 0
404 606 -405 0
-404 606 405 0
-404 -606 228 0
405 -607 -295 0
405 607 -406 0
-405 607 406 0
-405 -607 295 0
406 -561 608 0
406 -560 -608 0
-406 561 608 0
-406 560 -608 0
407 -605 395 0
-407 605 0
-407 -395 0
-408 409 -449 -464 479 0
-408 409 449 464 479 0
408 -479 0
408 449 -464 0
408 -409 0
408 -449 464 0
-409 410 426 -436 -443 0
-409 -410 -426 -436 -443 0
-409 410 426 436 443 0
-409 -410 -426 436 443 0
409 410 -426 0
409 -410 426 0
409 436 -443 0
409 -436 443 0
410 -604 -261 0
410 604 -411 0
-410 604 411 0
-410 -604 261 0
411 605 -412 0
411 -605 -424 0
-411 -605 424 0
-411 605 412 0
412 -606 -413 0
412 606 -417 0
-412 -606 413 0
-412 606 417 0
413 -607 -351 0
413 607 -414 0
-413 607 414 0
-413 -607 351 0
414 608 -415 0
414 -608 -416 0
-414 -608 416 0
-414 608 415 0
415 -188 353 0
-415 188 0
-415 -353 0
416 -195 353 0
-416 195 0
-416 -353 0
-417 -607 421 0
-417 607 418 0
417 607 -418 0
417 -607 -421 0
418 608 -419 0
418 -608 -420 0
-418 -608 420 0
-418 608 419 0
419 -267 353 0
-419 267 0
-419 -353 0
420 -168 353 0
-420 168 0
-420 -353 0
421 608 -422 0
421 -608 -423 0
-421 -608 423 0
-421 608 422 0
422 -174 353 0
-422 174 0
-422 -353 0
423 -183 353 0
-423 183 0
-423 -353 0
424 -606 -377 0
424 606 -425 0
-424 606 425 0
-424 -606 377 0
425 607 -355 0
425 -607 -359 0
-425 -607 359 0
-425 607 355 0
426 -604 -270 0
426 604 -427 0
-426 604 427 0
-426 -604 270 0
427 605 -428 0
427 -605 -434 0
-427 -605 434 0
-427 605 428 0
428 606 -429 0
428 -606 -432 0
-428 -606 432 0
-428 606 429 0
429 -607 -430 0
429 607 -431 0
-429 607 431 0
-429 -607 430 0
430 -572 608 0
430 -571 -608 0
-430 572 608 0
-430 571 -608 0
431 -574 608 0
431 -573 -608 0
-431 574 608 0
-431 573 -608 0
432 -607 -368 0
432 607 -433 0
-432 607 433 0
-432 -607 368 0
433 -570 608 0
433 -569 -608 0
-433 570 608 0
-433 569 -608 0
434 -606 -380 0
434 606 -435 0
-434 606 435 0
-434 -606 380 0
435 607 -369 0
435 -607 -371 0
-435 -607 371 0
-435 607 369 0
436 -604 -312 0
436 604 -437 0
-436 604 437 0
-436 -604 312 0
437 -605 -349 0
437 605 -438 0
-437 605 438 0
-437 -605 349 0
438 -606 -439 0
438 606 -440 0
-438 -606 439 0
-438 606 440 0
439 -607 -414 0
439 607 -421 0
-439 607 421 0
-439 -607 414 0
-440 607 441 0
-440 -607 418 0
440 -607 -418 0
440 607 -441 0
441 -608 -442 0
441 608 -318 353 0
-441 -608 442 0
-441 608 -353 0
-441 608 318 0
442 -306 353 0
-442 306 0
-442 -353 0
443 -604 -320 0
443 604 -444 0
-443 604 444 0
-443 -604 320 0
444 -605 -366 0
444 605 -445 0
-444 605 445 0
-444 -605 366 0
445 606 -446 0
445 -606 -448 0
-445 -606 448 0
-445 606 446 0
446 -607 -431 0
446 607 -447 0
-446 607 447 0
-446 -607 431 0
447 -576 608 0
447 -575 -608 0
-447 576 608 0
-447 575 -608 0
448 607 -430 0
448 -607 -433 0
-448 -607 433 0
-448 607 430 0
-449 -604 292 0
-449 604 450 0
449 -604 -292 0
449 604 -450 0
-450 605 451 0
-450 -605 458 0
450 -605 -458 0
450 605 -451 0
-451 606 452 0
-451 -606 455 0
451 -606 -455 0
451 606 -452 0
-452 607 453 0
-452 -607 454 0
452 -607 -454 0
452 607 -453 0
-453 575 608 0
-453 574 -608 0
453 -575 608 0
453 -574 -608 0
454 -573 608 0
454 -572 -608 0
-454 573 608 0
-454 572 -608 0
455 607 -456 0
455 -607 -457 0
-455 -607 457 0
-455 607 456 0
456 -571 608 0
456 -570 -608 0
-456 571 608 0
-456 570 -608 0
457 -569 608 0
457 -568 -608 0
-457 569 608 0
-457 568 -608 0
458 606 -459 0
458 -606 -462 0
-458 -606 462 0
-458 606 459 0
459 607 -460 0
459 -607 -461 0
-459 -607 461 0
-459 607 460 0
460 -567 608 0
460 -566 -608 0
-460 567 608 0
-460 566 -608 0
461 -565 608 0
461 -564 -608 0
-461 565 608 0
-461 564 -608 0
462 -607 -406 0
462 607 -463 0
-462 607 463 0
-462 -607 406 0
463 -563 608 0
463 -562 -608 0
-463 563 608 0
-463 562 -608 0
-464 -604 300 0
-464 604 465 0
464 -604 -300 0
464 604 -465 0
-465 605 466 0
-465 -605 473 0
465 -605 -473 0
465 605 -466 0
-466 606 470 0
-466 -606 467 0
466 -606 -467 0
466 606 -470 0
467 607 -468 0
467 -607 -469 0
-467 -607 469 0
-467 607 468 0
468 -608 -415 0
468 608 -423 0
-468 608 423 0
-468 -608 415 0
469 -608 -352 0
469 608 -416 0
-469 608 416 0
-469 -608 352 0
470 607 -471 0
470 -607 -472 0
-470 -607 472 0
-470 607 471 0
471 -608 -419 0
471 608 -442 0
-471 608 442 0
-471 -608 419 0
472 608 -420 0
472 -608 -422 0
-472 -608 422 0
-472 608 420 0
473 606 -474 0
473 -606 -477 0
-473 -606 477 0
-473 606 474 0
474 607 -475 0
474 -607 -476 0
-474 -607 476 0
-474 607 475 0
475 608 -354 0
475 -608 -356 0
-475 -608 356 0
-475 608 354 0
476 608 -357 0
476 -608 -360 0
-476 -608 360 0
-476 608 357 0
477 -607 -402 0
477 607 -478 0
-477 607 478 0
-477 -607 402 0
478 608 -361 0
478 -608 -363 0
-478 -608 363 0
-478 608 361 0
-479 480 486 -497 0
-479 480 486 494 0
479 -480 0
479 -486 0
479 -494 497 0
480 604 481 -484 0
480 -604 -250 481 0
-480 -481 0
-480 604 484 0
-480 -604 250 0
-481 -604 240 0
-481 604 482 0
481 -604 -240 0
481 604 -482 0
-482 -605 379 0
-482 605 483 0
482 -605 -379 0
482 605 -483 0
-483 -606 435 0
-483 606 432 0
483 606 -432 0
483 -606 -435 0
-484 -605 376 0
-484 605 485 0
484 -605 -376 0
484 605 -485 0
-485 -606 425 0
-485 606 413 0
485 606 -413 0
485 -606 -425 0
486 -604 -291 490 0
486 604 -487 490 0
-486 -490 0
-486 -604 291 0
-486 604 487 0
-487 605 488 0
-487 -605 18 0
487 -605 -18 0
487 605 -488 0
488 -606 -401 0
488 606 -489 0
-488 606 489 0
-488 -606 401 0
489 607 -476 0
489 -607 -478 0
-489 -607 478 0
-489 607 476 0
490 604 340 -491 0
490 -604 -290 340 0
-490 -340 0
-490 -604 290 0
-490 604 491 0
491 -605 -227 0
491 605 -492 0
-491 605 492 0
-491 -605 227 0
492 -606 -405 0
492 606 -493 0
-492 606 493 0
-492 -606 405 0
493 607 -461 0
493 -607 -463 0
-493 -607 463 0
-493 607 461 0
-494 -604 -605 0
-494 604 495 0
-494 -604 330 0
494 604 -495 0
494 -604 605 -330 0
-495 605 496 0
-495 -605 329 0
495 -605 -329 0
495 605 -496 0
496 -606 -314 0
496 606 -358 0
-496 606 358 0
-496 -606 314 0
-497 -604 -605 0
-497 604 498 0
-497 -604 335 0
497 604 -498 0
497 -604 605 -335 0
-498 605 499 0
-498 -605 334 0
498 -605 -334 0
498 605 -499 0
499 -606 -322 0
499 606 -370 0
-499 606 370 0
-499 -606 322 0
-500 501 -505 -508 511 0
-500 501 505 508 511 0
500 -511 0
500 505 -508 0
500 -501 0
500 -505 508 0
501 604 502 -504 0
501 -604 -288 502 0
-501 -502 0
-501 604 504 0
-501 -604 288 0
502 604 340 -503 0
502 -604 -287 340 0
-502 -340 0
-502 -604 287 0
-502 604 503 0
503 -605 -271 0
503 605 -434 0
-503 605 434 0
-503 -605 271 0
-504 605 424 0
-504 -605 262 0
504 -605 -262 0
504 605 -424 0
-505 -604 333 0
-505 604 506 0
505 -604 -333 0
505 604 -506 0
-506 -605 499 0
-506 605 507 0
506 -605 -499 0
506 605 -507 0
-507 606 448 0
-507 -606 367 0
507 -606 -367 0
507 606 -448 0
-508 -604 328 0
-508 604 509 0
508 -604 -328 0
508 604 -509 0
-509 -605 496 0
-509 605 510 0
509 -605 -496 0
509 605 -510 0
-510 606 439 0
-510 -606 350 0
510 -606 -350 0
510 606 -439 0
-511 512 533 -537 -541 0
-511 512 533 537 541 0
511 -533 0
511 -537 541 0
511 -512 0
511 537 -541 0
-512 513 521 525 0
-512 513 -523 525 0
512 -513 0
512 -525 0
512 -521 523 0
513 604 514 -518 0
513 -604 -383 514 0
-513 -514 0
-513 604 518 0
-513 -604 383 0
-514 -604 387 0
-514 604 515 0
514 -604 -387 0
514 604 -515 0
-515 605 516 0
-515 -605 517 0
515 -605 -517 0
515 605 -516 0
-516 -606 459 0
-516 606 455 0
516 606 -455 0
516 -606 -459 0
517 -606 -294 0
517 606 -462 0
-517 606 462 0
-517 -606 294 0
-518 605 519 0
-518 -605 520 0
518 -605 -520 0
518 605 -519 0
-519 -606 474 0
-519 606 467 0
519 606 -467 0
519 -606 -474 0
520 -606 -302 0
520 606 -477 0
-520 606 477 0
-520 -606 302 0
-521 -604 -605 0
-521 604 522 0
-521 -604 385 0
521 604 -522 0
521 -604 605 -385 0
-522 605 520 0
-522 -605 384 0
522 -605 -384 0
522 605 -520 0
-523 -604 -605 0
-523 604 524 0
-523 -604 389 0
523 604 -524 0
523 -604 605 -389 0
-524 605 517 0
-524 -605 388 0
524 -605 -388 0
524 605 -517 0
525 604 526 -530 0
525 -604 -391 526 0
-525 -526 0
-525 604 530 0
-525 -604 391 0
-526 -604 394 0
-526 604 527 0
526 -604 -394 0
526 604 -527 0
-527 -605 404 0
-527 605 528 0
527 -605 -404 0
527 605 -528 0
-528 606 529 0
-528 -606 493 0
528 -606 -493 0
528 606 -529 0
529 607 -457 0
529 -607 -460 0
-529 -607 460 0
-529 607 457 0
-530 -605 400 0
-530 605 531 0
530 -605 -400 0
530 605 -531 0
-531 606 532 0
-531 -606 489 0
531 -606 -489 0
531 606 -532 0
532 607 -469 0
532 -607 -475 0
-532 -607 475 0
-532 607 469 0
533 -604 -325 535 0
533 604 -534 535 0
-533 -535 0
-533 -604 325 0
-533 604 534 0
-534 605 473 0
-534 -605 301 0
534 -605 -301 0
534 605 -473 0
535 604 340 -536 0
535 -604 -326 340 0
-535 -340 0
-535 -604 326 0
-535 604 536 0
536 -605 -293 0
536 605 -458 0
-536 605 458 0
-536 -605 293 0
-537 -604 17 0
-537 604 538 0
537 -604 -17 0
537 604 -538 0
-538 -605 488 0
-538 605 539 0
538 -605 -488 0
538 605 -539 0
-539 606 540 0
-539 -606 532 0
539 -606 -532 0
539 606 -540 0
540 -607 -468 0
540 607 -472 0
-540 607 472 0
-540 -607 468 0
541 -604 -226 0
541 604 -542 0
-541 604 542 0
-541 -604 226 0
542 -605 -492 0
542 605 -543 0
-542 605 543 0
-542 -605 492 0
543 -606 -529 0
543 606 -544 0
-543 606 544 0
-543 -606 529 0
544 607 -454 0
544 -607 -456 0
-544 -607 456 0
-544 607 454 0
-609 0
2 0

